NAME: PointSet_Angle_5_3
TYPE: TSP
COMMENT: Points chosen discrete uniformly at random out of ${0, \ldots, 500}^2$.
DIMENSION: 5
EDGE_WEIGHT_TYPE: EUC_2D
NODE_COORD_SECTION
1 450 118
2 222 45
3 126 352
4 456 22
5 256 445
EOF
